
Gurobi 8.1.0 (mac64, Python) logging started Mon May  4 18:30:55 2020

Academic license - for non-commercial use only

Gurobi 8.1.0 (mac64, Python) logging started Mon May  4 21:37:16 2020

Academic license - for non-commercial use only

Gurobi 8.1.0 (mac64, Python) logging started Wed May  6 21:14:27 2020

Academic license - for non-commercial use only

Gurobi 8.1.0 (mac64, Python) logging started Tue May 12 17:24:53 2020

Academic license - for non-commercial use only
